DIMACS2
20 253 69 75 108 220 265 119 78 162 177 228 106 310 209 202 172 6 81 53 94
p edge 320 875
e 0 67 1.0
e 0 190 1.0
e 1 67 1.0
e 1 103 1.0
e 2 133 1.0
e 2 145 1.0
e 3 294 1.0
e 3 29 2.0
e 4 283 1.0
e 4 95 1.0
e 5 265 8.0
e 5 94 3.0
e 6 98 3.0
e 6 86 30.0
e 6 69 9.0
e 6 198 46.0
e 6 87 25.0
e 6 57 12.0
e 6 169 44.0
e 6 32 32.0
e 6 21 31.0
e 6 119 34.0
e 6 147 31.0
e 6 264 46.0
e 6 62 20.0
e 6 122 9.0
e 6 108 42.0
e 6 167 12.0
e 7 48 1.0
e 7 132 1.0
e 8 107 1.0
e 8 215 1.0
e 9 169 2.0
e 9 221 1.0
e 10 43 1.0
e 10 166 1.0
e 11 118 1.0
e 11 277 1.0
e 12 138 1.0
e 12 314 1.0
e 13 221 1.0
e 13 218 3.0
e 14 275 1.0
e 14 54 2.0
e 15 299 1.0
e 15 276 1.0
e 16 298 1.0
e 16 165 1.0
e 17 207 1.0
e 17 234 1.0
e 18 242 1.0
e 18 316 1.0
e 19 83 1.0
e 19 28 1.0
e 20 184 1.0
e 20 117 1.0
e 21 132 1.0
e 21 291 1.0
e 22 56 1.0
e 22 42 1.0
e 23 220 10.0
e 23 267 1.0
e 24 99 1.0
e 24 173 1.0
e 25 72 1.0
e 25 95 2.0
e 26 76 1.0
e 26 142 1.0
e 27 241 1.0
e 27 77 1.0
e 28 105 1.0
e 28 42 1.0
e 29 280 2.0
e 29 20 3.0
e 30 188 1.0
e 30 177 48.0
e 31 60 1.0
e 31 12 5.0
e 32 133 1.0
e 32 36 1.0
e 33 117 2.0
e 33 141 1.0
e 34 27 2.0
e 34 4 1.0
e 35 28 1.0
e 35 242 1.0
e 36 159 1.0
e 36 182 1.0
e 37 102 1.0
e 37 8 1.0
e 38 61 5.0
e 38 275 2.0
e 39 82 1.0
e 39 198 1.0
e 40 39 1.0
e 40 65 1.0
e 41 163 1.0
e 41 56 1.0
e 42 316 1.0
e 42 282 1.0
e 43 165 1.0
e 43 188 1.0
e 44 305 1.0
e 44 177 44.0
e 45 19 1.0
e 45 155 1.0
e 46 295 3.0
e 46 137 2.0
e 47 238 1.0
e 47 272 1.0
e 48 50 4.0
e 48 76 1.0
e 49 192 3.0
e 49 35 1.0
e 50 251 3.0
e 50 315 4.0
e 51 6 39.0
e 51 202 24.0
e 52 263 1.0
e 52 25 1.0
e 53 136 22.0
e 53 119 14.0
e 53 230 34.0
e 53 194 42.0
e 53 306 5.0
e 53 90 24.0
e 53 239 49.0
e 53 33 7.0
e 53 11 31.0
e 53 16 21.0
e 53 124 41.0
e 53 266 47.0
e 53 71 13.0
e 53 162 18.0
e 53 220 47.0
e 54 131 1.0
e 54 272 1.0
e 55 59 1.0
e 55 150 1.0
e 56 121 2.0
e 56 124 2.0
e 57 82 1.0
e 57 13 2.0
e 58 301 1.0
e 58 80 1.0
e 59 85 1.0
e 59 61 1.0
e 60 30 5.0
e 60 192 1.0
e 61 81 35.0
e 61 281 3.0
e 62 145 5.0
e 62 94 3.0
e 63 318 1.0
e 63 67 1.0
e 64 179 2.0
e 64 282 1.0
e 65 144 1.0
e 65 207 1.0
e 66 65 1.0
e 66 105 2.0
e 67 259 1.0
e 67 301 1.0
e 68 205 1.0
e 68 77 1.0
e 69 191 32.0
e 69 252 10.0
e 69 270 14.0
e 69 108 32.0
e 69 146 7.0
e 69 319 47.0
e 69 2 6.0
e 69 0 5.0
e 69 104 37.0
e 69 160 9.0
e 69 246 5.0
e 69 253 29.0
e 69 287 40.0
e 69 62 12.0
e 69 21 19.0
e 69 249 15.0
e 70 256 2.0
e 70 87 1.0
e 71 295 1.0
e 71 160 2.0
e 72 44 1.0
e 72 255 1.0
e 73 297 1.0
e 73 47 1.0
e 74 279 1.0
e 74 141 2.0
e 75 230 34.0
e 75 307 16.0
e 75 68 46.0
e 75 264 21.0
e 75 74 13.0
e 75 49 46.0
e 75 300 37.0
e 75 156 37.0
e 75 22 40.0
e 75 195 4.0
e 75 108 16.0
e 75 119 9.0
e 75 265 21.0
e 75 292 5.0
e 75 104 44.0
e 75 161 5.0
e 76 275 2.0
e 76 60 1.0
e 77 13 2.0
e 77 114 2.0
e 78 268 2.0
e 78 214 38.0
e 78 4 46.0
e 78 240 28.0
e 78 175 10.0
e 78 57 23.0
e 78 139 23.0
e 78 119 34.0
e 78 253 33.0
e 78 15 21.0
e 78 31 1.0
e 78 241 49.0
e 78 152 15.0
e 78 292 7.0
e 78 79 15.0
e 79 160 2.0
e 79 282 1.0
e 80 309 1.0
e 80 89 1.0
e 81 109 1.0
e 81 206 44.0
e 81 36 21.0
e 81 31 13.0
e 81 9 19.0
e 81 10 19.0
e 81 66 49.0
e 81 15 17.0
e 81 158 21.0
e 81 222 35.0
e 81 39 35.0
e 81 113 42.0
e 81 249 33.0
e 81 246 45.0
e 81 94 28.0
e 81 139 36.0
e 82 174 1.0
e 82 314 1.0
e 83 254 2.0
e 83 92 2.0
e 84 112 2.0
e 84 202 15.0
e 85 165 1.0
e 85 102 1.0
e 86 122 1.0
e 86 102 2.0
e 87 279 1.0
e 87 250 1.0
e 88 299 1.0
e 88 42 1.0
e 89 122 2.0
e 89 193 2.0
e 90 282 1.0
e 90 187 1.0
e 91 31 1.0
e 91 170 1.0
e 92 78 42.0
e 92 234 2.0
e 93 167 2.0
e 93 235 1.0
e 94 279 15.0
e 94 109 23.0
e 94 201 14.0
e 94 319 29.0
e 94 64 21.0
e 94 195 13.0
e 94 265 29.0
e 94 90 4.0
e 94 91 49.0
e 94 199 26.0
e 94 69 8.0
e 94 96 45.0
e 94 9 27.0
e 95 284 2.0
e 95 80 1.0
e 96 268 1.0
e 96 12 1.0
e 97 100 1.0
e 97 208 1.0
e 98 8 2.0
e 98 140 1.0
e 99 14 1.0
e 99 27 3.0
e 100 260 1.0
e 100 246 5.0
e 101 271 5.0
e 101 110 1.0
e 102 128 1.0
e 102 310 47.0
e 103 95 1.0
e 103 305 1.0
e 104 30 5.0
e 104 72 2.0
e 105 132 1.0
e 105 252 1.0
e 106 262 30.0
e 106 101 19.0
e 106 214 33.0
e 106 92 41.0
e 106 84 21.0
e 106 213 1.0
e 106 11 30.0
e 106 250 48.0
e 106 53 29.0
e 106 201 44.0
e 106 243 42.0
e 106 239 7.0
e 106 86 8.0
e 106 62 20.0
e 107 100 1.0
e 107 183 1.0
e 108 226 36.0
e 108 157 26.0
e 108 310 46.0
e 108 273 3.0
e 108 84 26.0
e 108 156 46.0
e 108 281 5.0
e 108 152 21.0
e 108 46 35.0
e 108 33 11.0
e 108 98 9.0
e 108 233 16.0
e 108 41 12.0
e 109 126 1.0
e 109 28 1.0
e 110 149 2.0
e 110 151 1.0
e 111 244 1.0
e 111 162 40.0
e 112 215 1.0
e 112 72 1.0
e 113 314 1.0
e 113 204 1.0
e 114 14 3.0
e 114 269 1.0
e 115 259 1.0
e 115 199 2.0
e 116 174 1.0
e 116 302 2.0
e 117 237 2.0
e 117 147 1.0
e 118 61 4.0
e 118 189 2.0
e 119 298 7.0
e 119 318 49.0
e 119 153 39.0
e 119 158 16.0
e 119 255 48.0
e 119 111 14.0
e 119 13 3.0
e 119 217 6.0
e 119 167 32.0
e 119 293 18.0
e 119 114 32.0
e 119 69 37.0
e 120 20 1.0
e 120 297 1.0
e 121 110 1.0
e 121 59 1.0
e 122 67 2.0
e 122 228 3.0
e 123 85 1.0
e 123 30 3.0
e 124 155 3.0
e 124 177 14.0
e 125 192 1.0
e 125 129 1.0
e 126 179 1.0
e 126 187 1.0
e 127 102 1.0
e 127 146 1.0
e 128 307 2.0
e 128 25 1.0
e 129 271 1.0
e 129 109 1.0
e 130 133 1.0
e 130 258 1.0
e 131 298 2.0
e 131 28 1.0
e 132 53 47.0
e 132 134 2.0
e 133 112 1.0
e 133 313 1.0
e 134 113 1.0
e 134 150 1.0
e 135 196 1.0
e 135 201 1.0
e 136 202 15.0
e 136 149 1.0
e 137 50 1.0
e 137 276 1.0
e 138 93 2.0
e 138 65 1.0
e 139 266 2.0
e 139 297 1.0
e 140 311 2.0
e 140 202 13.0
e 141 209 25.0
e 141 256 1.0
e 142 261 1.0
e 142 88 1.0
e 143 190 1.0
e 143 108 21.0
e 144 116 2.0
e 144 33 2.0
e 145 293 1.0
e 145 171 1.0
e 146 75 38.0
e 146 258 1.0
e 147 48 1.0
e 147 5 1.0
e 148 115 1.0
e 148 295 1.0
e 149 277 1.0
e 149 267 1.0
e 150 316 1.0
e 150 269 1.0
e 151 127 1.0
e 151 73 3.0
e 152 127 1.0
e 152 200 1.0
e 153 221 1.0
e 153 84 5.0
e 154 318 1.0
e 154 8 2.0
e 155 227 1.0
e 155 98 2.0
e 156 301 1.0
e 156 8 1.0
e 157 106 20.0
e 157 265 28.0
e 158 274 3.0
e 158 228 22.0
e 159 192 2.0
e 159 18 1.0
e 160 34 2.0
e 160 265 49.0
e 161 225 2.0
e 161 151 1.0
e 162 50 8.0
e 162 54 14.0
e 162 253 12.0
e 162 6 31.0
e 162 124 8.0
e 162 1 47.0
e 162 254 44.0
e 162 288 49.0
e 162 16 18.0
e 162 209 18.0
e 162 69 16.0
e 162 265 18.0
e 162 71 29.0
e 162 108 11.0
e 163 128 1.0
e 163 210 1.0
e 164 91 2.0
e 164 73 2.0
e 165 277 1.0
e 165 128 1.0
e 166 101 3.0
e 166 295 1.0
e 167 298 1.0
e 167 257 1.0
e 168 23 2.0
e 168 287 2.0
e 169 133 1.0
e 169 116 1.0
e 170 48 1.0
e 170 255 1.0
e 171 155 1.0
e 171 27 1.0
e 172 170 4.0
e 172 83 45.0
e 172 253 8.0
e 172 92 49.0
e 172 265 12.0
e 172 171 14.0
e 172 178 22.0
e 172 75 11.0
e 172 135 41.0
e 172 23 25.0
e 172 202 11.0
e 172 130 8.0
e 172 22 29.0
e 172 140 33.0
e 172 228 27.0
e 172 78 40.0
e 172 119 31.0
e 173 196 1.0
e 173 291 1.0
e 174 263 2.0
e 174 101 1.0
e 175 203 1.0
e 175 305 1.0
e 176 268 1.0
e 176 227 1.0
e 177 236 35.0
e 177 280 27.0
e 177 153 15.0
e 177 172 7.0
e 177 6 23.0
e 177 173 7.0
e 177 36 37.0
e 177 270 44.0
e 177 243 11.0
e 177 202 36.0
e 177 265 8.0
e 177 135 2.0
e 177 104 7.0
e 178 63 1.0
e 178 138 1.0
e 179 97 1.0
e 179 119 29.0
e 180 238 2.0
e 180 205 1.0
e 181 149 1.0
e 181 115 1.0
e 182 127 1.0
e 182 21 1.0
e 183 226 1.0
e 183 17 1.0
e 184 142 1.0
e 184 185 1.0
e 185 200 1.0
e 185 123 1.0
e 186 63 1.0
e 186 42 1.0
e 187 35 1.0
e 187 120 1.0
e 188 58 1.0
e 188 189 1.0
e 189 220 9.0
e 189 48 2.0
e 190 215 1.0
e 190 67 1.0
e 191 317 1.0
e 191 213 2.0
e 192 103 1.0
e 192 315 1.0
e 193 245 2.0
e 193 54 2.0
e 194 199 1.0
e 194 64 1.0
e 195 303 1.0
e 195 54 1.0
e 196 67 1.0
e 196 314 1.0
e 197 41 1.0
e 197 291 1.0
e 198 304 1.0
e 198 97 1.0
e 199 46 1.0
e 199 248 1.0
e 200 54 1.0
e 200 56 1.0
e 201 298 2.0
e 201 286 1.0
e 202 268 37.0
e 202 186 23.0
e 202 283 14.0
e 202 203 17.0
e 202 253 13.0
e 202 96 9.0
e 202 130 23.0
e 202 191 38.0
e 202 24 20.0
e 203 103 2.0
e 203 70 2.0
e 204 216 2.0
e 204 271 3.0
e 205 55 1.0
e 205 316 1.0
e 206 12 2.0
e 206 298 1.0
e 207 269 1.0
e 207 58 1.0
e 208 295 1.0
e 208 222 1.0
e 209 261 48.0
e 209 78 25.0
e 209 75 2.0
e 209 17 47.0
e 209 158 26.0
e 209 79 36.0
e 209 81 20.0
e 209 111 26.0
e 209 24 4.0
e 209 159 7.0
e 209 154 30.0
e 209 229 40.0
e 209 142 30.0
e 209 1 36.0
e 209 86 5.0
e 210 121 1.0
e 210 29 2.0
e 211 281 1.0
e 211 208 2.0
e 212 263 1.0
e 212 133 1.0
e 213 192 2.0
e 213 317 1.0
e 214 89 2.0
e 214 208 2.0
e 215 290 1.0
e 215 136 1.0
e 216 279 1.0
e 216 56 2.0
e 217 269 1.0
e 217 141 1.0
e 218 275 1.0
e 218 302 1.0
e 219 49 1.0
e 219 170 1.0
e 220 256 8.0
e 220 31 20.0
e 220 5 41.0
e 220 143 15.0
e 220 287 10.0
e 220 106 42.0
e 220 108 29.0
e 220 0 35.0
e 220 202 6.0
e 220 308 17.0
e 220 50 23.0
e 220 309 5.0
e 220 43 46.0
e 221 237 2.0
e 221 52 1.0
e 222 276 1.0
e 222 271 1.0
e 223 269 1.0
e 223 114 1.0
e 224 309 1.0
e 224 211 1.0
e 225 74 2.0
e 225 123 1.0
e 226 63 2.0
e 226 261 1.0
e 227 124 5.0
e 227 40 1.0
e 228 107 28.0
e 228 246 16.0
e 228 278 38.0
e 228 106 26.0
e 228 3 33.0
e 228 183 47.0
e 228 265 31.0
e 228 296 32.0
e 228 240 21.0
e 228 34 48.0
e 228 211 48.0
e 228 52 42.0
e 228 119 30.0
e 228 93 2.0
e 229 165 1.0
e 229 247 1.0
e 230 70 4.0
e 230 245 3.0
e 231 261 2.0
e 231 313 2.0
e 232 132 1.0
e 232 106 30.0
e 233 84 1.0
e 233 71 1.0
e 234 285 1.0
e 234 112 1.0
e 235 200 2.0
e 235 59 1.0
e 236 41 2.0
e 236 19 1.0
e 237 99 2.0
e 237 273 2.0
e 238 219 1.0
e 238 164 2.0
e 239 99 1.0
e 239 82 1.0
e 240 61 1.0
e 240 193 1.0
e 241 197 1.0
e 241 66 2.0
e 242 314 1.0
e 242 217 1.0
e 243 307 1.0
e 243 236 1.0
e 244 221 1.0
e 244 34 2.0
e 245 247 1.0
e 245 185 1.0
e 246 97 2.0
e 246 49 1.0
e 247 51 1.0
e 247 194 1.0
e 248 251 1.0
e 248 28 1.0
e 249 259 1.0
e 249 210 1.0
e 250 306 1.0
e 250 291 1.0
e 251 83 2.0
e 251 315 1.0
e 252 123 1.0
e 252 94 28.0
e 253 195 29.0
e 253 55 46.0
e 253 26 37.0
e 253 125 44.0
e 253 228 10.0
e 253 254 32.0
e 253 143 45.0
e 253 265 18.0
e 253 180 3.0
e 253 230 18.0
e 253 274 19.0
e 253 93 25.0
e 254 77 3.0
e 254 129 2.0
e 255 120 1.0
e 255 95 2.0
e 256 137 1.0
e 256 179 2.0
e 257 256 1.0
e 257 193 1.0
e 258 67 1.0
e 258 197 1.0
e 259 38 1.0
e 259 262 1.0
e 260 54 2.0
e 260 116 1.0
e 261 306 2.0
e 261 236 2.0
e 262 177 29.0
e 262 77 1.0
e 263 118 2.0
e 263 220 30.0
e 264 66 1.0
e 264 46 1.0
e 265 107 29.0
e 265 266 26.0
e 265 78 48.0
e 265 144 40.0
e 265 125 35.0
e 265 308 30.0
e 265 106 47.0
e 266 227 4.0
e 266 290 1.0
e 267 53 6.0
e 267 162 48.0
e 268 100 1.0
e 268 248 1.0
e 269 106 39.0
e 269 157 2.0
e 270 25 1.0
e 270 304 1.0
e 271 237 2.0
e 271 295 1.0
e 272 215 1.0
e 272 256 1.0
e 273 295 1.0
e 273 150 1.0
e 274 65 1.0
e 274 280 1.0
e 275 216 2.0
e 275 288 2.0
e 276 62 1.0
e 276 101 1.0
e 277 260 1.0
e 277 55 1.0
e 278 257 1.0
e 278 238 1.0
e 279 149 1.0
e 279 202 27.0
e 280 55 2.0
e 280 38 1.0
e 281 210 2.0
e 281 259 3.0
e 282 132 1.0
e 282 58 1.0
e 283 148 1.0
e 283 248 1.0
e 284 30 1.0
e 284 99 1.0
e 285 207 1.0
e 285 237 1.0
e 286 72 1.0
e 286 297 1.0
e 287 32 1.0
e 287 213 2.0
e 288 29 2.0
e 288 110 1.0
e 289 88 1.0
e 289 137 1.0
e 290 52 2.0
e 290 317 2.0
e 291 18 1.0
e 291 298 1.0
e 292 230 3.0
e 292 289 1.0
e 293 40 1.0
e 293 286 1.0
e 294 9 1.0
e 294 304 1.0
e 295 27 1.0
e 295 101 1.0
e 296 212 1.0
e 296 140 1.0
e 297 219 2.0
e 297 155 1.0
e 298 85 1.0
e 298 12 2.0
e 299 134 1.0
e 299 35 1.0
e 300 182 5.0
e 300 202 37.0
e 301 216 1.0
e 301 200 1.0
e 302 260 1.0
e 302 141 1.0
e 303 145 1.0
e 303 151 1.0
e 304 238 1.0
e 304 316 1.0
e 305 203 1.0
e 305 196 1.0
e 306 16 2.0
e 306 8 1.0
e 307 23 1.0
e 307 166 2.0
e 308 294 2.0
e 308 68 1.0
e 309 2 1.0
e 309 100 2.0
e 310 266 21.0
e 310 51 37.0
e 310 253 8.0
e 310 209 38.0
e 310 278 42.0
e 310 94 1.0
e 310 265 4.0
e 310 311 1.0
e 310 240 1.0
e 310 115 47.0
e 310 158 39.0
e 310 10 19.0
e 310 146 9.0
e 310 296 40.0
e 310 26 22.0
e 311 221 1.0
e 311 236 1.0
e 312 219 1.0
e 312 80 1.0
e 313 299 1.0
e 313 112 1.0
e 314 259 1.0
e 314 229 1.0
e 315 282 1.0
e 315 289 1.0
e 316 143 2.0
e 316 107 1.0
e 317 188 1.0
e 317 227 2.0
e 318 131 2.0
e 318 210 2.0
e 319 146 5.0
e 319 244 1.0
